5000 50
55583 86
87239 83
63055 97
2888 174
16387 58
65608 106
57834 13
18221 18
34816 185
93186 162
33491 200
93603 19
6698 139
16509 68
24352 193
78022 86
99830 61
39121 84
70709 8
1657 95
33665 16
44753 50
31228 173
43467 196
99309 5
14109 200
71804 111
9818 53
85450 78
88872 153
35470 45
38790 99
64857 110
98182 166
36269 191
22660 86
99806 164
94135 186
63089 2
29781 197
6958 89
95196 113
51599 166
89965 200
64043 36
95904 113
78432 94
51163 89
28955 97
78854 24
